graph_generation/data/mip/tcsp/hexagonal_lattice_N_8_task_outside_shortest_path.txt
364 160 1 160 99
1 2 4
2 1 4
1 18 4
18 1 4
2 3 12
3 2 12
3 4 14
4 3 14
3 20 9
20 3 9
4 5 1
5 4 1
5 6 9
6 5 9
5 22 16
22 5 16
6 7 6
7 6 6
7 24 9
24 7 9
8 9 4
9 8 4
9 26 3
26 9 3
10 11 17
11 10 17
11 12 2
12 11 2
11 28 16
28 11 16
12 13 4
13 12 4
13 14 2
14 13 2
13 30 15
30 13 15
14 15 11
15 14 11
15 16 15
16 15 15
15 32 16
32 15 16
16 17 17
17 16 17
17 34 16
34 17 16
18 19 3
19 18 3
19 20 17
20 19 17
19 37 8
37 19 8
20 21 1
21 20 1
21 22 17
22 21 17
21 39 8
39 21 8
23 24 15
24 23 15
23 41 17
41 23 17
24 25 3
25 24 3
25 26 9
26 25 9
27 28 1
28 27 1
29 30 19
30 29 19
29 47 13
47 29 13
30 31 18
31 30 18
31 32 16
32 31 16
31 49 13
49 31 13
33 34 19
34 33 19
33 51 14
51 33 14
34 35 5
35 34 5
35 53 8
53 35 8
36 37 15
37 36 15
36 54 1
54 36 1
37 38 18
38 37 18
38 39 4
39 38 4
38 56 7
56 38 7
39 40 5
40 39 5
40 58 10
58 40 10
41 42 3
42 41 3
42 43 8
43 42 8
42 60 6
60 42 6
44 45 6
45 44 6
44 62 10
62 44 10
46 64 16
64 46 16
47 48 16
48 47 16
48 49 1
49 48 1
49 50 8
50 49 8
50 68 4
68 50 4
51 52 1
52 51 1
52 53 10
53 52 10
52 70 8
70 52 8
54 55 2
55 54 2
55 56 5
56 55 5
55 73 2
73 55 2
56 57 17
57 56 17
57 58 3
58 57 3
57 75 10
75 57 10
58 59 5
59 58 5
59 77 18
77 59 18
60 61 7
61 60 7
61 62 6
62 61 6
61 79 7
79 61 7
62 63 11
63 62 11
63 64 7
64 63 7
63 81 4
81 63 4
64 65 2
65 64 2
65 66 5
66 65 5
66 67 12
67 66 12
67 68 7
68 67 7
68 69 9
69 68 9
69 70 18
70 69 18
69 87 10
87 69 10
70 71 7
71 70 7
71 89 9
89 71 9
72 73 7
73 72 7
72 90 17
90 72 17
73 74 3
74 73 3
74 75 12
75 74 12
74 92 1
92 74 1
75 76 18
76 75 18
76 77 13
77 76 13
76 94 12
94 76 12
78 79 5
79 78 5
78 96 1
96 78 1
79 80 2
80 79 2
80 81 2
81 80 2
80 98 12
98 80 12
81 82 1
82 81 1
82 83 10
83 82 10
82 100 16
100 82 16
84 85 1
85 84 1
84 102 16
102 84 16
85 86 5
86 85 5
86 87 6
87 86 6
86 104 8
104 86 8
87 88 10
88 87 10
88 106 15
106 88 15
90 91 13
91 90 13
91 92 7
92 91 7
91 109 6
109 91 6
93 94 5
94 93 5
93 111 14
111 93 14
94 95 15
95 94 15
95 96 10
96 95 10
95 113 1
113 95 1
96 97 5
97 96 5
97 98 3
98 97 3
97 115 16
115 97 16
99 100 10
100 99 10
99 117 9
117 99 9
100 101 12
101 100 12
101 102 2
102 101 2
101 119 19
119 101 19
103 104 11
104 103 11
103 121 19
121 103 19
105 106 16
106 105 16
105 123 5
123 105 5
107 125 7
125 107 7
108 109 18
109 108 18
108 126 4
126 108 4
109 110 9
110 109 9
110 111 3
111 110 3
111 112 3
112 111 3
112 113 3
113 112 3
113 114 5
114 113 5
114 115 10
115 114 10
115 116 11
116 115 11
117 118 9
118 117 9
118 119 14
119 118 14
119 120 9
120 119 9
120 138 11
138 120 11
121 122 5
122 121 5
123 124 3
124 123 3
124 125 12
125 124 12
124 142 7
142 124 7
126 127 1
127 126 1
127 144 15
144 127 15
128 129 12
129 128 12
129 130 16
130 129 16
129 146 14
146 129 14
131 132 2
132 131 2
131 148 2
148 131 2
132 133 4
133 132 4
133 134 6
134 133 6
133 150 15
150 133 15
134 135 9
135 134 9
135 136 3
136 135 3
135 152 13
152 135 13
136 137 10
137 136 10
137 138 15
138 137 15
137 154 6
154 137 6
139 140 15
140 139 15
139 156 9
156 139 9
140 141 16
141 140 16
142 143 17
143 142 17
143 160 16
160 143 16
144 145 7
145 144 7
145 146 8
146 145 8
146 147 12
147 146 12
147 148 1
148 147 1
148 149 16
149 148 16
149 150 16
150 149 16
151 152 3
152 151 3
152 153 13
153 152 13
153 154 11
154 153 11
154 155 13
155 154 13
155 156 18
156 155 18
156 157 4
157 156 4
157 158 15
158 157 15
159 160 9
160 159 9
2
3
4
5
7
8
9
11
13
14
15
16
17
20
21
22
24
25
26
27
28
29
31
34
35
40
41
42
43
45
46
47
48
49
50
51
52
53
56
57
58
60
62
70
71
72
75
76
77
83
84
85
86
89
90
93
97
98
100
101
103
107
108
115
116
118
119
120
121
122
125
126
128
129
130
131
132
133
134
135
136
137
138
139
140
144
146
147
148
149
150
152
153
154
155
156
157
158
159
